20
1 0 5
2 0 2
2 1 8
3 0 4
3 1 8
3 2 2
4 0 8
4 1 7
4 2 9
4 3 4
5 0 2
5 1 7
5 2 5
5 3 3
5 4 4
6 0 2
6 1 3
6 2 4
6 3 5
6 4 4
6 5 9
7 0 3
7 1 8
7 2 8
7 3 1
7 4 7
7 5 10
7 6 2
8 0 1
8 1 1
8 3 3
8 4 5
8 5 6
8 7 4
9 0 7
9 1 4
9 2 5
9 3 8
9 4 1
9 6 3
9 7 3
9 8 4
10 0 6
10 1 7
10 2 5
10 3 5
10 4 8
10 5 5
10 7 9
10 8 3
10 9 9
11 0 1
11 1 5
11 2 1
11 3 8
11 4 3
11 5 6
11 6 3
11 7 2
11 8 3
11 9 10
11 10 5
12 0 7
12 1 7
12 2 4
12 3 9
12 4 7
12 5 4
12 6 1
12 7 4
12 8 6
12 9 8
12 10 1
12 11 1
13 0 8
13 1 3
13 2 6
13 3 5
13 5 5
13 6 5
13 7 6
13 8 5
13 9 5
13 10 6
13 12 2
14 0 5
14 1 8
14 2 9
14 3 3
14 4 6
14 5 10
14 6 9
14 7 9
14 9 10
14 11 7
14 12 7
14 13 10
15 0 8
15 1 3
15 2 3
15 4 5
15 5 10
15 6 4
15 7 1
15 8 3
15 9 8
15 10 5
15 11 8
15 12 6
15 13 7
15 14 2
16 0 8
16 1 6
16 2 8
16 3 9
16 4 2
16 5 3
16 6 8
16 7 10
16 8 5
16 9 6
16 10 8
16 12 9
16 13 1
16 14 10
16 15 5
17 1 7
17 2 10
17 3 3
17 4 8
17 5 2
17 6 5
17 7 1
17 8 4
17 9 3
17 11 9
17 12 6
17 13 2
17 14 3
17 15 4
17 16 8
18 0 6
18 1 8
18 3 10
18 4 7
18 5 9
18 6 2
18 7 8
18 8 7
18 9 4
18 10 5
18 11 2
18 12 6
18 13 4
18 14 7
18 15 3
18 16 3
18 17 9
19 0 1
19 1 8
19 2 10
19 3 9
19 4 5
19 5 7
19 7 4
19 8 4
19 9 8
19 10 1
19 11 5
19 12 1
19 13 2
19 14 8
19 15 10
19 16 2
19 17 4
19 18 1
